p cnf 494 832
51 52 1 79 80 0
51 52 1 79 -80 0
51 52 1 -79 80 0
51 52 1 -79 -80 0
-51 -52 1 81 82 0
-51 -52 1 81 -82 0
-51 -52 1 -81 82 0
-51 -52 1 -81 -82 0
51 -52 -1 83 84 0
51 -52 -1 83 -84 0
51 -52 -1 -83 84 0
51 -52 -1 -83 -84 0
-51 52 -1 85 86 0
-51 52 -1 85 -86 0
-51 52 -1 -85 86 0
-51 52 -1 -85 -86 0
1 53 2 87 88 0
1 53 2 87 -88 0
1 53 2 -87 88 0
1 53 2 -87 -88 0
-1 -53 2 89 90 0
-1 -53 2 89 -90 0
-1 -53 2 -89 90 0
-1 -53 2 -89 -90 0
1 -53 -2 91 92 0
1 -53 -2 91 -92 0
1 -53 -2 -91 92 0
1 -53 -2 -91 -92 0
-1 53 -2 93 94 0
-1 53 -2 93 -94 0
-1 53 -2 -93 94 0
-1 53 -2 -93 -94 0
2 54 3 95 96 0
2 54 3 95 -96 0
2 54 3 -95 96 0
2 54 3 -95 -96 0
-2 -54 3 97 98 0
-2 -54 3 97 -98 0
-2 -54 3 -97 98 0
-2 -54 3 -97 -98 0
2 -54 -3 99 100 0
2 -54 -3 99 -100 0
2 -54 -3 -99 100 0
2 -54 -3 -99 -100 0
-2 54 -3 101 102 0
-2 54 -3 101 -102 0
-2 54 -3 -101 102 0
-2 54 -3 -101 -102 0
3 55 4 103 104 0
3 55 4 103 -104 0
3 55 4 -103 104 0
3 55 4 -103 -104 0
-3 -55 4 105 106 0
-3 -55 4 105 -106 0
-3 -55 4 -105 106 0
-3 -55 4 -105 -106 0
3 -55 -4 107 108 0
3 -55 -4 107 -108 0
3 -55 -4 -107 108 0
3 -55 -4 -107 -108 0
-3 55 -4 109 110 0
-3 55 -4 109 -110 0
-3 55 -4 -109 110 0
-3 55 -4 -109 -110 0
4 56 5 111 112 0
4 56 5 111 -112 0
4 56 5 -111 112 0
4 56 5 -111 -112 0
-4 -56 5 113 114 0
-4 -56 5 113 -114 0
-4 -56 5 -113 114 0
-4 -56 5 -113 -114 0
4 -56 -5 115 116 0
4 -56 -5 115 -116 0
4 -56 -5 -115 116 0
4 -56 -5 -115 -116 0
-4 56 -5 117 118 0
-4 56 -5 117 -118 0
-4 56 -5 -117 118 0
-4 56 -5 -117 -118 0
5 57 6 119 120 0
5 57 6 119 -120 0
5 57 6 -119 120 0
5 57 6 -119 -120 0
-5 -57 6 121 122 0
-5 -57 6 121 -122 0
-5 -57 6 -121 122 0
-5 -57 6 -121 -122 0
5 -57 -6 123 124 0
5 -57 -6 123 -124 0
5 -57 -6 -123 124 0
5 -57 -6 -123 -124 0
-5 57 -6 125 126 0
-5 57 -6 125 -126 0
-5 57 -6 -125 126 0
-5 57 -6 -125 -126 0
6 58 7 127 128 0
6 58 7 127 -128 0
6 58 7 -127 128 0
6 58 7 -127 -128 0
-6 -58 7 129 130 0
-6 -58 7 129 -130 0
-6 -58 7 -129 130 0
-6 -58 7 -129 -130 0
6 -58 -7 131 132 0
6 -58 -7 131 -132 0
6 -58 -7 -131 132 0
6 -58 -7 -131 -132 0
-6 58 -7 133 134 0
-6 58 -7 133 -134 0
-6 58 -7 -133 134 0
-6 58 -7 -133 -134 0
7 59 8 135 136 0
7 59 8 135 -136 0
7 59 8 -135 136 0
7 59 8 -135 -136 0
-7 -59 8 137 138 0
-7 -59 8 137 -138 0
-7 -59 8 -137 138 0
-7 -59 8 -137 -138 0
7 -59 -8 139 140 0
7 -59 -8 139 -140 0
7 -59 -8 -139 140 0
7 -59 -8 -139 -140 0
-7 59 -8 141 142 0
-7 59 -8 141 -142 0
-7 59 -8 -141 142 0
-7 59 -8 -141 -142 0
8 60 9 143 144 0
8 60 9 143 -144 0
8 60 9 -143 144 0
8 60 9 -143 -144 0
-8 -60 9 145 146 0
-8 -60 9 145 -146 0
-8 -60 9 -145 146 0
-8 -60 9 -145 -146 0
8 -60 -9 147 148 0
8 -60 -9 147 -148 0
8 -60 -9 -147 148 0
8 -60 -9 -147 -148 0
-8 60 -9 149 150 0
-8 60 -9 149 -150 0
-8 60 -9 -149 150 0
-8 60 -9 -149 -150 0
9 61 10 151 152 0
9 61 10 151 -152 0
9 61 10 -151 152 0
9 61 10 -151 -152 0
-9 -61 10 153 154 0
-9 -61 10 153 -154 0
-9 -61 10 -153 154 0
-9 -61 10 -153 -154 0
9 -61 -10 155 156 0
9 -61 -10 155 -156 0
9 -61 -10 -155 156 0
9 -61 -10 -155 -156 0
-9 61 -10 157 158 0
-9 61 -10 157 -158 0
-9 61 -10 -157 158 0
-9 61 -10 -157 -158 0
10 62 11 159 160 0
10 62 11 159 -160 0
10 62 11 -159 160 0
10 62 11 -159 -160 0
-10 -62 11 161 162 0
-10 -62 11 161 -162 0
-10 -62 11 -161 162 0
-10 -62 11 -161 -162 0
10 -62 -11 163 164 0
10 -62 -11 163 -164 0
10 -62 -11 -163 164 0
10 -62 -11 -163 -164 0
-10 62 -11 165 166 0
-10 62 -11 165 -166 0
-10 62 -11 -165 166 0
-10 62 -11 -165 -166 0
11 63 12 167 168 0
11 63 12 167 -168 0
11 63 12 -167 168 0
11 63 12 -167 -168 0
-11 -63 12 169 170 0
-11 -63 12 169 -170 0
-11 -63 12 -169 170 0
-11 -63 12 -169 -170 0
11 -63 -12 171 172 0
11 -63 -12 171 -172 0
11 -63 -12 -171 172 0
11 -63 -12 -171 -172 0
-11 63 -12 173 174 0
-11 63 -12 173 -174 0
-11 63 -12 -173 174 0
-11 63 -12 -173 -174 0
12 64 13 175 176 0
12 64 13 175 -176 0
12 64 13 -175 176 0
12 64 13 -175 -176 0
-12 -64 13 177 178 0
-12 -64 13 177 -178 0
-12 -64 13 -177 178 0
-12 -64 13 -177 -178 0
12 -64 -13 179 180 0
12 -64 -13 179 -180 0
12 -64 -13 -179 180 0
12 -64 -13 -179 -180 0
-12 64 -13 181 182 0
-12 64 -13 181 -182 0
-12 64 -13 -181 182 0
-12 64 -13 -181 -182 0
13 65 14 183 184 0
13 65 14 183 -184 0
13 65 14 -183 184 0
13 65 14 -183 -184 0
-13 -65 14 185 186 0
-13 -65 14 185 -186 0
-13 -65 14 -185 186 0
-13 -65 14 -185 -186 0
13 -65 -14 187 188 0
13 -65 -14 187 -188 0
13 -65 -14 -187 188 0
13 -65 -14 -187 -188 0
-13 65 -14 189 190 0
-13 65 -14 189 -190 0
-13 65 -14 -189 190 0
-13 65 -14 -189 -190 0
14 66 15 191 192 0
14 66 15 191 -192 0
14 66 15 -191 192 0
14 66 15 -191 -192 0
-14 -66 15 193 194 0
-14 -66 15 193 -194 0
-14 -66 15 -193 194 0
-14 -66 15 -193 -194 0
14 -66 -15 195 196 0
14 -66 -15 195 -196 0
14 -66 -15 -195 196 0
14 -66 -15 -195 -196 0
-14 66 -15 197 198 0
-14 66 -15 197 -198 0
-14 66 -15 -197 198 0
-14 66 -15 -197 -198 0
15 67 16 199 200 0
15 67 16 199 -200 0
15 67 16 -199 200 0
15 67 16 -199 -200 0
-15 -67 16 201 202 0
-15 -67 16 201 -202 0
-15 -67 16 -201 202 0
-15 -67 16 -201 -202 0
15 -67 -16 203 204 0
15 -67 -16 203 -204 0
15 -67 -16 -203 204 0
15 -67 -16 -203 -204 0
-15 67 -16 205 206 0
-15 67 -16 205 -206 0
-15 67 -16 -205 206 0
-15 67 -16 -205 -206 0
16 68 17 207 208 0
16 68 17 207 -208 0
16 68 17 -207 208 0
16 68 17 -207 -208 0
-16 -68 17 209 210 0
-16 -68 17 209 -210 0
-16 -68 17 -209 210 0
-16 -68 17 -209 -210 0
16 -68 -17 211 212 0
16 -68 -17 211 -212 0
16 -68 -17 -211 212 0
16 -68 -17 -211 -212 0
-16 68 -17 213 214 0
-16 68 -17 213 -214 0
-16 68 -17 -213 214 0
-16 68 -17 -213 -214 0
17 69 18 215 216 0
17 69 18 215 -216 0
17 69 18 -215 216 0
17 69 18 -215 -216 0
-17 -69 18 217 218 0
-17 -69 18 217 -218 0
-17 -69 18 -217 218 0
-17 -69 18 -217 -218 0
17 -69 -18 219 220 0
17 -69 -18 219 -220 0
17 -69 -18 -219 220 0
17 -69 -18 -219 -220 0
-17 69 -18 221 222 0
-17 69 -18 221 -222 0
-17 69 -18 -221 222 0
-17 69 -18 -221 -222 0
18 70 19 223 224 0
18 70 19 223 -224 0
18 70 19 -223 224 0
18 70 19 -223 -224 0
-18 -70 19 225 226 0
-18 -70 19 225 -226 0
-18 -70 19 -225 226 0
-18 -70 19 -225 -226 0
18 -70 -19 227 228 0
18 -70 -19 227 -228 0
18 -70 -19 -227 228 0
18 -70 -19 -227 -228 0
-18 70 -19 229 230 0
-18 70 -19 229 -230 0
-18 70 -19 -229 230 0
-18 70 -19 -229 -230 0
19 71 20 231 232 0
19 71 20 231 -232 0
19 71 20 -231 232 0
19 71 20 -231 -232 0
-19 -71 20 233 234 0
-19 -71 20 233 -234 0
-19 -71 20 -233 234 0
-19 -71 20 -233 -234 0
19 -71 -20 235 236 0
19 -71 -20 235 -236 0
19 -71 -20 -235 236 0
19 -71 -20 -235 -236 0
-19 71 -20 237 238 0
-19 71 -20 237 -238 0
-19 71 -20 -237 238 0
-19 71 -20 -237 -238 0
20 72 21 239 240 0
20 72 21 239 -240 0
20 72 21 -239 240 0
20 72 21 -239 -240 0
-20 -72 21 241 242 0
-20 -72 21 241 -242 0
-20 -72 21 -241 242 0
-20 -72 21 -241 -242 0
20 -72 -21 243 244 0
20 -72 -21 243 -244 0
20 -72 -21 -243 244 0
20 -72 -21 -243 -244 0
-20 72 -21 245 246 0
-20 72 -21 245 -246 0
-20 72 -21 -245 246 0
-20 72 -21 -245 -246 0
21 73 22 247 248 0
21 73 22 247 -248 0
21 73 22 -247 248 0
21 73 22 -247 -248 0
-21 -73 22 249 250 0
-21 -73 22 249 -250 0
-21 -73 22 -249 250 0
-21 -73 22 -249 -250 0
21 -73 -22 251 252 0
21 -73 -22 251 -252 0
21 -73 -22 -251 252 0
21 -73 -22 -251 -252 0
-21 73 -22 253 254 0
-21 73 -22 253 -254 0
-21 73 -22 -253 254 0
-21 73 -22 -253 -254 0
22 74 23 255 256 0
22 74 23 255 -256 0
22 74 23 -255 256 0
22 74 23 -255 -256 0
-22 -74 23 257 258 0
-22 -74 23 257 -258 0
-22 -74 23 -257 258 0
-22 -74 23 -257 -258 0
22 -74 -23 259 260 0
22 -74 -23 259 -260 0
22 -74 -23 -259 260 0
22 -74 -23 -259 -260 0
-22 74 -23 261 262 0
-22 74 -23 261 -262 0
-22 74 -23 -261 262 0
-22 74 -23 -261 -262 0
23 75 24 263 264 0
23 75 24 263 -264 0
23 75 24 -263 264 0
23 75 24 -263 -264 0
-23 -75 24 265 266 0
-23 -75 24 265 -266 0
-23 -75 24 -265 266 0
-23 -75 24 -265 -266 0
23 -75 -24 267 268 0
23 -75 -24 267 -268 0
23 -75 -24 -267 268 0
23 -75 -24 -267 -268 0
-23 75 -24 269 270 0
-23 75 -24 269 -270 0
-23 75 -24 -269 270 0
-23 75 -24 -269 -270 0
24 76 25 271 272 0
24 76 25 271 -272 0
24 76 25 -271 272 0
24 76 25 -271 -272 0
-24 -76 25 273 274 0
-24 -76 25 273 -274 0
-24 -76 25 -273 274 0
-24 -76 25 -273 -274 0
24 -76 -25 275 276 0
24 -76 -25 275 -276 0
24 -76 -25 -275 276 0
24 -76 -25 -275 -276 0
-24 76 -25 277 278 0
-24 76 -25 277 -278 0
-24 76 -25 -277 278 0
-24 76 -25 -277 -278 0
25 77 78 279 280 0
25 77 78 279 -280 0
25 77 78 -279 280 0
25 77 78 -279 -280 0
-25 -77 78 281 282 0
-25 -77 78 281 -282 0
-25 -77 78 -281 282 0
-25 -77 78 -281 -282 0
25 -77 -78 283 284 0
25 -77 -78 283 -284 0
25 -77 -78 -283 284 0
25 -77 -78 -283 -284 0
-25 77 -78 285 286 0
-25 77 -78 285 -286 0
-25 77 -78 -285 286 0
-25 77 -78 -285 -286 0
26 77 78 287 288 0
26 77 78 287 -288 0
26 77 78 -287 288 0
26 77 78 -287 -288 0
-26 -77 78 289 290 0
-26 -77 78 289 -290 0
-26 -77 78 -289 290 0
-26 -77 78 -289 -290 0
26 -77 -78 291 292 0
26 -77 -78 291 -292 0
26 -77 -78 -291 292 0
26 -77 -78 -291 -292 0
-26 77 -78 293 294 0
-26 77 -78 293 -294 0
-26 77 -78 -293 294 0
-26 77 -78 -293 -294 0
27 76 26 295 296 0
27 76 26 295 -296 0
27 76 26 -295 296 0
27 76 26 -295 -296 0
-27 -76 26 297 298 0
-27 -76 26 297 -298 0
-27 -76 26 -297 298 0
-27 -76 26 -297 -298 0
27 -76 -26 299 300 0
27 -76 -26 299 -300 0
27 -76 -26 -299 300 0
27 -76 -26 -299 -300 0
-27 76 -26 301 302 0
-27 76 -26 301 -302 0
-27 76 -26 -301 302 0
-27 76 -26 -301 -302 0
28 75 27 303 304 0
28 75 27 303 -304 0
28 75 27 -303 304 0
28 75 27 -303 -304 0
-28 -75 27 305 306 0
-28 -75 27 305 -306 0
-28 -75 27 -305 306 0
-28 -75 27 -305 -306 0
28 -75 -27 307 308 0
28 -75 -27 307 -308 0
28 -75 -27 -307 308 0
28 -75 -27 -307 -308 0
-28 75 -27 309 310 0
-28 75 -27 309 -310 0
-28 75 -27 -309 310 0
-28 75 -27 -309 -310 0
29 74 28 311 312 0
29 74 28 311 -312 0
29 74 28 -311 312 0
29 74 28 -311 -312 0
-29 -74 28 313 314 0
-29 -74 28 313 -314 0
-29 -74 28 -313 314 0
-29 -74 28 -313 -314 0
29 -74 -28 315 316 0
29 -74 -28 315 -316 0
29 -74 -28 -315 316 0
29 -74 -28 -315 -316 0
-29 74 -28 317 318 0
-29 74 -28 317 -318 0
-29 74 -28 -317 318 0
-29 74 -28 -317 -318 0
30 73 29 319 320 0
30 73 29 319 -320 0
30 73 29 -319 320 0
30 73 29 -319 -320 0
-30 -73 29 321 322 0
-30 -73 29 321 -322 0
-30 -73 29 -321 322 0
-30 -73 29 -321 -322 0
30 -73 -29 323 324 0
30 -73 -29 323 -324 0
30 -73 -29 -323 324 0
30 -73 -29 -323 -324 0
-30 73 -29 325 326 0
-30 73 -29 325 -326 0
-30 73 -29 -325 326 0
-30 73 -29 -325 -326 0
31 72 30 327 328 0
31 72 30 327 -328 0
31 72 30 -327 328 0
31 72 30 -327 -328 0
-31 -72 30 329 330 0
-31 -72 30 329 -330 0
-31 -72 30 -329 330 0
-31 -72 30 -329 -330 0
31 -72 -30 331 332 0
31 -72 -30 331 -332 0
31 -72 -30 -331 332 0
31 -72 -30 -331 -332 0
-31 72 -30 333 334 0
-31 72 -30 333 -334 0
-31 72 -30 -333 334 0
-31 72 -30 -333 -334 0
32 71 31 335 336 0
32 71 31 335 -336 0
32 71 31 -335 336 0
32 71 31 -335 -336 0
-32 -71 31 337 338 0
-32 -71 31 337 -338 0
-32 -71 31 -337 338 0
-32 -71 31 -337 -338 0
32 -71 -31 339 340 0
32 -71 -31 339 -340 0
32 -71 -31 -339 340 0
32 -71 -31 -339 -340 0
-32 71 -31 341 342 0
-32 71 -31 341 -342 0
-32 71 -31 -341 342 0
-32 71 -31 -341 -342 0
33 70 32 343 344 0
33 70 32 343 -344 0
33 70 32 -343 344 0
33 70 32 -343 -344 0
-33 -70 32 345 346 0
-33 -70 32 345 -346 0
-33 -70 32 -345 346 0
-33 -70 32 -345 -346 0
33 -70 -32 347 348 0
33 -70 -32 347 -348 0
33 -70 -32 -347 348 0
33 -70 -32 -347 -348 0
-33 70 -32 349 350 0
-33 70 -32 349 -350 0
-33 70 -32 -349 350 0
-33 70 -32 -349 -350 0
34 69 33 351 352 0
34 69 33 351 -352 0
34 69 33 -351 352 0
34 69 33 -351 -352 0
-34 -69 33 353 354 0
-34 -69 33 353 -354 0
-34 -69 33 -353 354 0
-34 -69 33 -353 -354 0
34 -69 -33 355 356 0
34 -69 -33 355 -356 0
34 -69 -33 -355 356 0
34 -69 -33 -355 -356 0
-34 69 -33 357 358 0
-34 69 -33 357 -358 0
-34 69 -33 -357 358 0
-34 69 -33 -357 -358 0
35 68 34 359 360 0
35 68 34 359 -360 0
35 68 34 -359 360 0
35 68 34 -359 -360 0
-35 -68 34 361 362 0
-35 -68 34 361 -362 0
-35 -68 34 -361 362 0
-35 -68 34 -361 -362 0
35 -68 -34 363 364 0
35 -68 -34 363 -364 0
35 -68 -34 -363 364 0
35 -68 -34 -363 -364 0
-35 68 -34 365 366 0
-35 68 -34 365 -366 0
-35 68 -34 -365 366 0
-35 68 -34 -365 -366 0
36 67 35 367 368 0
36 67 35 367 -368 0
36 67 35 -367 368 0
36 67 35 -367 -368 0
-36 -67 35 369 370 0
-36 -67 35 369 -370 0
-36 -67 35 -369 370 0
-36 -67 35 -369 -370 0
36 -67 -35 371 372 0
36 -67 -35 371 -372 0
36 -67 -35 -371 372 0
36 -67 -35 -371 -372 0
-36 67 -35 373 374 0
-36 67 -35 373 -374 0
-36 67 -35 -373 374 0
-36 67 -35 -373 -374 0
37 66 36 375 376 0
37 66 36 375 -376 0
37 66 36 -375 376 0
37 66 36 -375 -376 0
-37 -66 36 377 378 0
-37 -66 36 377 -378 0
-37 -66 36 -377 378 0
-37 -66 36 -377 -378 0
37 -66 -36 379 380 0
37 -66 -36 379 -380 0
37 -66 -36 -379 380 0
37 -66 -36 -379 -380 0
-37 66 -36 381 382 0
-37 66 -36 381 -382 0
-37 66 -36 -381 382 0
-37 66 -36 -381 -382 0
38 65 37 383 384 0
38 65 37 383 -384 0
38 65 37 -383 384 0
38 65 37 -383 -384 0
-38 -65 37 385 386 0
-38 -65 37 385 -386 0
-38 -65 37 -385 386 0
-38 -65 37 -385 -386 0
38 -65 -37 387 388 0
38 -65 -37 387 -388 0
38 -65 -37 -387 388 0
38 -65 -37 -387 -388 0
-38 65 -37 389 390 0
-38 65 -37 389 -390 0
-38 65 -37 -389 390 0
-38 65 -37 -389 -390 0
39 64 38 391 392 0
39 64 38 391 -392 0
39 64 38 -391 392 0
39 64 38 -391 -392 0
-39 -64 38 393 394 0
-39 -64 38 393 -394 0
-39 -64 38 -393 394 0
-39 -64 38 -393 -394 0
39 -64 -38 395 396 0
39 -64 -38 395 -396 0
39 -64 -38 -395 396 0
39 -64 -38 -395 -396 0
-39 64 -38 397 398 0
-39 64 -38 397 -398 0
-39 64 -38 -397 398 0
-39 64 -38 -397 -398 0
40 63 39 399 400 0
40 63 39 399 -400 0
40 63 39 -399 400 0
40 63 39 -399 -400 0
-40 -63 39 401 402 0
-40 -63 39 401 -402 0
-40 -63 39 -401 402 0
-40 -63 39 -401 -402 0
40 -63 -39 403 404 0
40 -63 -39 403 -404 0
40 -63 -39 -403 404 0
40 -63 -39 -403 -404 0
-40 63 -39 405 406 0
-40 63 -39 405 -406 0
-40 63 -39 -405 406 0
-40 63 -39 -405 -406 0
41 62 40 407 408 0
41 62 40 407 -408 0
41 62 40 -407 408 0
41 62 40 -407 -408 0
-41 -62 40 409 410 0
-41 -62 40 409 -410 0
-41 -62 40 -409 410 0
-41 -62 40 -409 -410 0
41 -62 -40 411 412 0
41 -62 -40 411 -412 0
41 -62 -40 -411 412 0
41 -62 -40 -411 -412 0
-41 62 -40 413 414 0
-41 62 -40 413 -414 0
-41 62 -40 -413 414 0
-41 62 -40 -413 -414 0
42 61 41 415 416 0
42 61 41 415 -416 0
42 61 41 -415 416 0
42 61 41 -415 -416 0
-42 -61 41 417 418 0
-42 -61 41 417 -418 0
-42 -61 41 -417 418 0
-42 -61 41 -417 -418 0
42 -61 -41 419 420 0
42 -61 -41 419 -420 0
42 -61 -41 -419 420 0
42 -61 -41 -419 -420 0
-42 61 -41 421 422 0
-42 61 -41 421 -422 0
-42 61 -41 -421 422 0
-42 61 -41 -421 -422 0
43 60 42 423 424 0
43 60 42 423 -424 0
43 60 42 -423 424 0
43 60 42 -423 -424 0
-43 -60 42 425 426 0
-43 -60 42 425 -426 0
-43 -60 42 -425 426 0
-43 -60 42 -425 -426 0
43 -60 -42 427 428 0
43 -60 -42 427 -428 0
43 -60 -42 -427 428 0
43 -60 -42 -427 -428 0
-43 60 -42 429 430 0
-43 60 -42 429 -430 0
-43 60 -42 -429 430 0
-43 60 -42 -429 -430 0
44 59 43 431 432 0
44 59 43 431 -432 0
44 59 43 -431 432 0
44 59 43 -431 -432 0
-44 -59 43 433 434 0
-44 -59 43 433 -434 0
-44 -59 43 -433 434 0
-44 -59 43 -433 -434 0
44 -59 -43 435 436 0
44 -59 -43 435 -436 0
44 -59 -43 -435 436 0
44 -59 -43 -435 -436 0
-44 59 -43 437 438 0
-44 59 -43 437 -438 0
-44 59 -43 -437 438 0
-44 59 -43 -437 -438 0
45 58 44 439 440 0
45 58 44 439 -440 0
45 58 44 -439 440 0
45 58 44 -439 -440 0
-45 -58 44 441 442 0
-45 -58 44 441 -442 0
-45 -58 44 -441 442 0
-45 -58 44 -441 -442 0
45 -58 -44 443 444 0
45 -58 -44 443 -444 0
45 -58 -44 -443 444 0
45 -58 -44 -443 -444 0
-45 58 -44 445 446 0
-45 58 -44 445 -446 0
-45 58 -44 -445 446 0
-45 58 -44 -445 -446 0
46 57 45 447 448 0
46 57 45 447 -448 0
46 57 45 -447 448 0
46 57 45 -447 -448 0
-46 -57 45 449 450 0
-46 -57 45 449 -450 0
-46 -57 45 -449 450 0
-46 -57 45 -449 -450 0
46 -57 -45 451 452 0
46 -57 -45 451 -452 0
46 -57 -45 -451 452 0
46 -57 -45 -451 -452 0
-46 57 -45 453 454 0
-46 57 -45 453 -454 0
-46 57 -45 -453 454 0
-46 57 -45 -453 -454 0
47 56 46 455 456 0
47 56 46 455 -456 0
47 56 46 -455 456 0
47 56 46 -455 -456 0
-47 -56 46 457 458 0
-47 -56 46 457 -458 0
-47 -56 46 -457 458 0
-47 -56 46 -457 -458 0
47 -56 -46 459 460 0
47 -56 -46 459 -460 0
47 -56 -46 -459 460 0
47 -56 -46 -459 -460 0
-47 56 -46 461 462 0
-47 56 -46 461 -462 0
-47 56 -46 -461 462 0
-47 56 -46 -461 -462 0
48 55 47 463 464 0
48 55 47 463 -464 0
48 55 47 -463 464 0
48 55 47 -463 -464 0
-48 -55 47 465 466 0
-48 -55 47 465 -466 0
-48 -55 47 -465 466 0
-48 -55 47 -465 -466 0
48 -55 -47 467 468 0
48 -55 -47 467 -468 0
48 -55 -47 -467 468 0
48 -55 -47 -467 -468 0
-48 55 -47 469 470 0
-48 55 -47 469 -470 0
-48 55 -47 -469 470 0
-48 55 -47 -469 -470 0
49 54 48 471 472 0
49 54 48 471 -472 0
49 54 48 -471 472 0
49 54 48 -471 -472 0
-49 -54 48 473 474 0
-49 -54 48 473 -474 0
-49 -54 48 -473 474 0
-49 -54 48 -473 -474 0
49 -54 -48 475 476 0
49 -54 -48 475 -476 0
49 -54 -48 -475 476 0
49 -54 -48 -475 -476 0
-49 54 -48 477 478 0
-49 54 -48 477 -478 0
-49 54 -48 -477 478 0
-49 54 -48 -477 -478 0
50 53 49 479 480 0
50 53 49 479 -480 0
50 53 49 -479 480 0
50 53 49 -479 -480 0
-50 -53 49 481 482 0
-50 -53 49 481 -482 0
-50 -53 49 -481 482 0
-50 -53 49 -481 -482 0
50 -53 -49 483 484 0
50 -53 -49 483 -484 0
50 -53 -49 -483 484 0
50 -53 -49 -483 -484 0
-50 53 -49 485 486 0
-50 53 -49 485 -486 0
-50 53 -49 -485 486 0
-50 53 -49 -485 -486 0
51 52 -50 487 488 0
51 52 -50 487 -488 0
51 52 -50 -487 488 0
51 52 -50 -487 -488 0
-51 -52 -50 489 490 0
-51 -52 -50 489 -490 0
-51 -52 -50 -489 490 0
-51 -52 -50 -489 -490 0
51 -52 50 491 492 0
51 -52 50 491 -492 0
51 -52 50 -491 492 0
51 -52 50 -491 -492 0
-51 52 50 493 494 0
-51 52 50 493 -494 0
-51 52 50 -493 494 0
-51 52 50 -493 -494 0
